 Compiled for linux_x86_64_ifort16-XT on Wed, 21 Dec 2016 13:13:20 +0000
 from code version
 d5b2243b9bb8+ Castep161_branch Tue, 20 Dec 2016 12:13:56 +0000
 Compiler: Intel Fortran 16.0.2.181; Optimisation: fast
 MATHLIBS: Intel MKL(11.3.2) (LAPACK version 3.5.0)
 FFT Lib : fftw3 version commercial-fftw-3.3.4-sse2-avx
 Fundamental constants values: CODATA 2010

 Run started: Tue, 03 Apr 2018 03:36:10 +0100

Warning: 8-way band-parallelism selected but the number of bands is not a
         multiple of 8.

         Increasing number of bands to 2424.

 Pseudo atomic calculation performed for H 1s1

 Converged in 11 iterations to a total energy of -12.6567 eV

 Pseudo atomic calculation performed for C 2s2 2p2

[...]

 Pseudo atomic calculation performed for Na 2s2 2p6 3s1

[...]

 Pseudo atomic calculation performed for P 3s2 3p3

 Converged in 16 iterations to a total energy of -175.8975 eV

 Calculation parallelised over 2000 processes.
 Data is distributed by G-vector(250-way) and band(8-way)

 ************************************ Title ************************************

 ***************************** General Parameters ******************************

 output verbosity                               : normal  (1)
 write checkpoint data to                       : polyA20-no-wat.check
 type of calculation                            : single point energy
 stress calculation                             : off
 density difference calculation                 : off
 electron localisation func (ELF) calculation   : off
 Hirshfeld analysis                             : off
 unlimited duration calculation
 timing information                             : on
 write final potential to formatted file        : off
 write final density to formatted file          : off
 write BibTeX reference list                    : on
 write OTFG pseudopotential files               : on
 checkpoint writing                             : off

 output         length unit                     : A
 output           mass unit                     : amu
 output           time unit                     : ps
 output         charge unit                     : e
 output           spin unit                     : hbar/2
 output         energy unit                     : eV
 output          force unit                     : eV/A
 output       velocity unit                     : A/ps
 output       pressure unit                     : GPa
 output     inv_length unit                     : 1/A
 output      frequency unit                     : cm-1
 output force constant unit                     : eV/A**2
 output         volume unit                     : A**3
 output   IR intensity unit                     : (D/A)**2/amu
 output         dipole unit                     : D
 output         efield unit                     : eV/A/e
 output        entropy unit                     : J/mol/K

 wavefunctions paging                           : none
 random number generator seed                   :  123456789
 data distribution                              : optimal for this architecture
 optimization strategy                          : maximize speed(+++)

 *********************** Exchange-Correlation Parameters ***********************

 using functional                               : revised Perdew Burke Ernzerhof
 relativistic treatment                         : Koelling-Harmon
 DFT+D: Semi-empirical dispersion correction    : off

 ************************* Pseudopotential Parameters **************************

 pseudopotential representation                 : reciprocal space
 <beta|phi> representation                      : reciprocal space
 spin-orbit coupling                            : off

 **************************** Basis Set Parameters *****************************

 plane wave basis set cut-off                   :  1000.0000   eV
 size of standard grid                          :     1.7500
 size of   fine   gmax                          :    28.3515   1/A
 largest prime factor in FFT                    :          5
 finite basis set correction                    : none

 **************************** Electronic Parameters ****************************

 number of  electrons                           :  4766.
 net charge of system                           :  0.000
 treating system as non-spin-polarized
 number of bands                                :       2424

 ********************* Electronic Minimization Parameters **********************

 Method: Treating system as metallic with density mixing treatment of electrons,
         and number of  SD  steps               :          1
         and number of  CG  steps               :          4

 total energy / atom convergence tol.           : 0.1000E-03   eV
 eigen-energy convergence tolerance             : 0.1000E-05   eV
 max force / atom convergence tol.              : ignored
 convergence tolerance window                   :          3   cycles
 max. number of SCF cycles                      :         30
 number of fixed-spin iterations                :         10
 smearing scheme                                : Gaussian
 smearing width                                 : 0.1000       eV
 Fermi energy convergence tolerance             : 0.2721E-13   eV
 periodic dipole correction                     : NONE

 ************************** Density Mixing Parameters **************************

 density-mixing scheme                          : Pulay
 max. length of mixing history                  :         20
 charge density mixing amplitude                : 0.4000
 cut-off energy for mixing                      :  1000.       eV
 charge density mixing g-vector                 :  1.500       1/A

 *********************** Population Analysis Parameters ************************

 Population analysis with cutoff                :  3.000       A

 ******************************* Developer Code ********************************

 bandpar=8

                                      Unit Cell
        Real Lattice(A)                      Reciprocal Lattice(1/A)
  66.9769011   0.0000000   0.0000000        0.0938112   0.0000000   0.0000000
   0.0000000  91.0221844   0.0000000        0.0000000   0.0690292   0.0000000
   0.0000000   0.0000000  52.0429911        0.0000000   0.0000000   0.1207307

                       Lattice parameters(A)       Cell Angles
                    a =   66.976901          alpha =   90.000000
                    b =   91.022184          beta  =   90.000000
                    c =   52.042991          gamma =   90.000000

                       Current cell volume =************       A**3

                                     Cell Contents
                         Total number of ions in cell = 1356
                      Total number of species in cell =    6
                        Max number of any one species =  494

            x  Element    Atom        Fractional coordinates of atoms  x
            x            Number           u          v          w      x
            x  H            1         0.812265   0.553349   0.533367   x
            x  H            2         0.841977   0.540648   0.563784   x
            x  H            3         0.819925   0.532090   0.554349   x
            x  H            4         0.823941   0.541813   0.601215   x
            x  H            5         0.803561   0.570070   0.623312   x
            x  H            6         0.787824   0.575036   0.552101   x
            x  H            7         0.762532   0.638471   0.584824   x
            x  H            8         0.762785   0.626628   0.560344   x
            x  H            9         0.780747   0.613916   0.655093   x
            x  H           10         0.789511   0.544724   0.565244   x
            x  H           11         0.770131   0.558589   0.593125   x
            x  H           12         0.782344   0.552096   0.622197   x
            x  H           13         0.772714   0.533925   0.643603   x
            x  H           14         0.757396   0.518698   0.645697   x
            x  H           15         0.751812   0.538495   0.678535   x
            x  H           16         0.720696   0.565280   0.661741   x
            x  H           17         0.731043   0.550899   0.592068   x
            x  H           18         0.725444   0.614334   0.555714   x
            x  H           19         0.732551   0.596140   0.544588   x
            x  H           20         0.724309   0.616169   0.636474   x
            x  H           21         0.723205   0.523367   0.655862   x
            x  H           22         0.711260   0.541879   0.625368   x
            x  H           23         0.698763   0.549438   0.652730   x
            x  H           24         0.693642   0.559292   0.695848   x
            x  H           25         0.678831   0.555898   0.722230   x
            x  H           26         0.658750   0.572003   0.706474   x
            x  H           27         0.644133   0.580144   0.653402   x
            x  H           28         0.671067   0.549514   0.613954   x
            x  H           29         0.683310   0.600546   0.536883   x
            x  H           30         0.696494   0.584846   0.545357   x
            x  H           31         0.647880   0.616938   0.599793   x
            x  H           32         0.644984   0.544680   0.692447   x
            x  H           33         0.652703   0.546614   0.650789   x
            x  H           34         0.629217   0.555656   0.644506   x
            x  H           35         0.599072   0.584341   0.684473   x
            x  H           36         0.575482   0.577156   0.688527   x
            x  H           37         0.580693   0.597492   0.654497   x
            x  H           38         0.591055   0.600854   0.605941   x
            x  H           39         0.618706   0.564203   0.603424   x
            x  H           40         0.651956   0.586571   0.499164   x
            x  H           41         0.657899   0.574673   0.526161   x
            x  H           42         0.614122   0.620146   0.528179   x
            x  H           43         0.563597   0.570070   0.637684   x
            x  H           44         0.580618   0.569554   0.600657   x
            x  H           45         0.566628   0.585638   0.589378   x
            x  H           46         0.518059   0.594482   0.595585   x
            x  H           47         0.497261   0.584726   0.606383   x
            x  H           48         0.507683   0.577738   0.557578   x
            x  H           49         0.533527   0.557721   0.542225   x
            x  H           50         0.570495   0.540319   0.582461   x
            x  H           51         0.630158   0.558996   0.498357   x
            x  H           52         0.627216   0.548284   0.528332   x
            x  H           53         0.579797   0.584748   0.488116   x
            x  H           54         0.503502   0.556095   0.598890   x
            x  H           55         0.536737   0.551415   0.598217   x
            x  H           56         0.529332   0.538451   0.574736   x
            x  H           57         0.471999   0.560600   0.529658   x
            x  H           58         0.450872   0.553579   0.518456   x
            x  H           59         0.469341   0.563994   0.482294   x
            x  H           60         0.511818   0.560138   0.460062   x
[...]
            x  P           24         0.361423   0.366295   0.373902   x
            x  P           25         0.355122   0.420293   0.443633   x
            x  P           26         0.383028   0.451439   0.550910   x
            x  P           27         0.438032   0.463393   0.636455   x
            x  P           28         0.519209   0.457317   0.700786   x
            x  P           29         0.607986   0.438333   0.681802   x
            x  P           30         0.669335   0.425731   0.600907   x
            x  P           31         0.721114   0.419348   0.492689   x
            x  P           32         0.725982   0.443090   0.367312   x
            x  P           33         0.685221   0.504657   0.300098   x
            x  P           34         0.642699   0.567829   0.313010   x
            x  P           35         0.607418   0.630187   0.334915   x
            x  P           36         0.595265   0.684910   0.430452   x
            x  P           37         0.627351   0.705454   0.547893   x
            x  P           38         0.676890   0.710860   0.647868   x

                         No user defined ionic velocities

                                   Details of Species

                               Mass of species in AMU
                                    H    1.0079400
                                    C   12.0107000
                                    N   14.0067400
                                    O   15.9994000
                                    Na   22.9897700
                                    P   30.9737600

                          Electric Quadrupole Moment (Barn)
                                    H    0.0028600 Isotope  2
                                    C    0.0332700 Isotope 11
                                    N    0.0204400 Isotope 14
                                    O   -0.0255800 Isotope 17
                                    Na    0.1040000 Isotope 23
                                    P    1.0000000 No Isotope Defined

                          Files used for pseudopotentials:
                                    H H_00.recpot
                                    C C_01.recpot
                                    N N_00.recpot
                                    O O_02.recpot
                                    Na Na_00.recpot
                                    P P_00.recpot

                              k-Points For BZ Sampling
                       MP grid size for SCF calculation is  1  1  1
                            with an offset of   0.000  0.000  0.000
                       Number of kpoints used =             1

                               Symmetry and Constraints

                      Maximum deviation from symmetry =  0.00000         ANG

         There are no symmetry operations specified or generated for this cell
                      Number of ionic constraints     =           3
                      Point group of crystal =     1: C1, 1, 1
                      Space group of crystal =     1: P1, P 1

                         Centre of mass is constrained
             Set iprint > 1 for details of linear ionic constraints

                         Number of cell constraints= 0
                         Cell constraints are:  1 2 3 4 5 6

                         External pressure/stress (GPa)
                          0.00000   0.00000   0.00000
                                    0.00000   0.00000
                                              0.00000

      1  -2.13284868E+005  4.90022811E+000   1.58847659E+001     809.75  <-- SCF
      2  -2.57190826E+005 -3.12945918E+000   3.23790250E+001    1408.65  <-- SCF
      3  -2.61460717E+005 -5.80165227E+000   3.14888704E+000    1877.38  <-- SCF
      4  -2.61670016E+005 -6.06430496E+000   1.54350820E-001    2387.79  <-- SCF
      5  -2.61053138E+005 -5.42378002E+000  -4.54925215E-001    2832.88  <-- SCF
      6  -2.60931646E+005 -4.85039405E+000  -8.95954346E-002    3340.63  <-- SCF
      7  -2.60883557E+005 -4.41126800E+000  -3.54645836E-002    3776.41  <-- SCF
      8  -2.60872596E+005 -4.41825834E+000  -8.08301285E-003    4294.53  <-- SCF
      9  -2.60860435E+005 -4.68140456E+000  -8.96847177E-003    4709.74  <-- SCF
     10  -2.60851650E+005 -4.64765475E+000  -6.47808435E-003    5168.93  <-- SCF
     11  -2.60842168E+005 -4.55268458E+000  -6.99303785E-003    5595.93  <-- SCF
     12  -2.60840737E+005 -4.56738046E+000  -1.05493234E-003    6054.09  <-- SCF
     13  -2.60840925E+005 -4.56933804E+000   1.38685561E-004    6344.43  <-- SCF
     14  -2.60840770E+005 -4.57949049E+000  -1.14408188E-004    6619.06  <-- SCF
     15  -2.60840489E+005 -4.58828021E+000  -2.07185860E-004    6912.50  <-- SCF
     16  -2.60839658E+005 -4.60341879E+000  -6.13275918E-004    7293.83  <-- SCF
     17  -2.60839274E+005 -4.63208857E+000  -2.82839894E-004    7672.63  <-- SCF
     18  -2.60838171E+005 -4.65760877E+000  -8.13491165E-004    8066.24  <-- SCF
     19  -2.60836853E+005 -4.66615624E+000  -9.72265754E-004    8425.02  <-- SCF
     20  -2.60837288E+005 -4.66748994E+000   3.20777994E-004    8738.11  <-- SCF
     21  -2.60837167E+005 -4.66741303E+000  -8.90385917E-005    9021.78  <-- SCF
     22  -2.60836769E+005 -4.66926878E+000  -2.93568942E-004    9332.28  <-- SCF
     23  -2.60836400E+005 -4.68724997E+000  -2.71992802E-004    9736.57  <-- SCF
     24  -2.60835686E+005 -4.69587719E+000  -5.26434043E-004   10093.00  <-- SCF
     25  -2.60835460E+005 -4.71160677E+000  -1.67189559E-004   10518.36  <-- SCF
     26  -2.60835481E+005 -4.71986501E+000   1.55780061E-005   10874.97  <-- SCF
     27  -2.60835564E+005 -4.72316053E+000   6.16380310E-005   11204.35  <-- SCF
------------------------------------------------------------------------ <-- SCF

Final energy, E             =  -260834.1744992     eV
Final free energy (E-TS)    =  -260835.5642073     eV
(energies not corrected for finite basis set)

NB est. 0K energy (E-0.5TS)      =  -260834.8693532     eV

 *********************** Forces ***********************
 *            Cartesian components (eV/A)             *
 *                   x            y            z      *
 * H         1     -0.24074      0.09299     -0.25652 *
 * H         2     -0.06566      0.17834     -0.02529 *
 * H         3      0.00416     -0.14912     -0.25789 *
 * H         4     -0.24732     -0.39343      0.06304 *
 * H         5     -0.13497      0.53137     -0.24900 *
 * H         6      0.05252      0.16406      0.13689 *
 * H         7      0.19576      0.20429      0.41730 *
 * H         8      0.30943     -0.48262      0.07358 *
 * H         9      0.51365      0.30771      0.17642 *
 * H        10     -0.76223      0.17902      0.03064 *
 * H        11      0.03761     -0.01009      0.66620 *
 * H        12     -0.45875     -0.44714     -0.49549 *
 * H        13      0.09481      0.05219     -0.24238 *
 * H        14     -0.06992     -0.28848     -0.02390 *
 * H        15     -0.01850     -0.26925      0.06074 *
 * H        16      0.62830      1.35225     -0.57541 *
 * H        17      0.01979     -0.01324      0.47880 *
 * H        18      0.34678      0.09863     -1.28838 *
 * H        19     -0.17422      0.55313     -0.36543 *
 * H        20      0.37686      0.12240     -0.13637 *
 * H        21     -1.14542      0.17745     -0.49764 *
 * H        22     -0.05043      0.04802      0.20009 *
 * H        23      0.03862     -0.29428     -0.40725 *
 * H        24     -0.21361      0.21047     -0.15252 *
 * H        25      0.04179     -0.84522      0.15169 *
 * H        26      0.04020     -0.01845      0.14068 *
 * H        27     -0.40900     -0.29575     -0.41480 *
 * H        28      0.11174      0.23619      0.70202 *
 * H        29      0.53027      0.06421     -0.14430 *
 * H        30     -0.30024     -0.04231     -0.02358 *
 * H        31      0.53048      0.48866     -0.34703 *
 * H        32     -0.36908     -0.04912     -0.44199 *
 * H        33     -0.10703      0.20367     -0.44003 *
 * H        34     -0.03707     -0.41807      0.70702 *
 * H        35      0.46515     -0.41226      0.34506 *
 * H        36     -0.38798      0.55749     -0.48309 *
 * H        37      0.06930      0.00316      0.66028 *
 * H        38      0.78294      0.46181      0.31150 *
 * H        39      0.30526      0.03359     -0.10597 *
 * H        40      0.67974     -0.30576     -0.07214 *
 * H        41      0.14451     -0.13981     -0.86972 *
 * H        42     -0.17147      0.08127      0.15360 *
 * H        43     -0.44786      0.29798      0.02533 *
 * H        44     -0.22972      0.22990     -0.46701 *
 * H        45      0.27781     -0.17615      0.28822 *
 * H        46      0.06738      0.03064     -0.30442 *
 * H        47     -0.55602      0.07624     -1.24083 *
 * H        48     -1.05058      0.08628      0.34697 *
 * H        49      0.41392     -0.11349     -0.42412 *
 * H        50     -0.38305      0.38122      0.09104 *
 * H        51      0.66022     -0.50080      0.16808 *
 * H        52      1.25741     -0.23170     -0.74393 *
 * H        53     -0.32358     -0.00492      0.10754 *
 * H        54     -0.29058     -0.17595     -0.28161 *
 * H        55      0.18290     -0.04772      0.00210 *
 * H        56     -0.06238      0.24330     -0.19192 *
 * H        57      0.25799     -0.00252      0.12087 *
 * H        58     -0.15244     -0.78398     -0.50672 *
 * H        59     -0.61923     -0.09490     -0.04505 *
 * H        60      1.01090     -0.28864      0.09444 *
[...]
 * P        24     -1.76662      1.09573     -2.71532 *
 * P        25      2.30893      2.87739      0.31798 *
 * P        26      2.64619      2.72597     -1.91398 *
 * P        27      1.35445      1.32389     -1.20567 *
 * P        28      4.19748      4.57681      1.72025 *
 * P        29     -2.08752      5.22505     -0.03728 *
 * P        30      3.13423      0.01632      1.36972 *
 * P        31      2.32723      0.52024      2.29049 *
 * P        32      4.31699      0.42204     -0.61958 *
 * P        33      2.17675      0.23766      0.83259 *
 * P        34      3.25571      0.06383      0.37766 *
 * P        35      3.23096      3.09279     -1.91812 *
 * P        36      1.41297      0.42707     -0.10805 *
 * P        37     -4.75905      0.90868      2.33161 *
 * P        38      1.24034      2.91079      1.30504 *

Population analysis requested but not supported in band parallel -- request ignored

 A BibTeX formatted list of references used in this run has been written to
 polyA20-no-wat.bib

Initialisation time =     70.82 s
Calculation time    =  11255.91 s
Finalisation time   =     18.36 s
Total time          =  11345.09 s

Overall parallel efficiency rating: Mediocre (51%)

Data was distributed by:-
G-vector (250-way); efficiency rating: Satisfactory (68%)
Band (8-way); efficiency rating: Excellent (93%)